120 150

48
43
59
53
50
57
52
52
55
42
46
58
58
41
47
52
58
50
46
58
58
52
53
43
51
53
46
55
52
58
45
57
40
52
46
55
59
59
51
59
56
51
49
52
54
46
42
58
55
50
53
51
42
58
40
49
44
53
46
53
56
45
43
46
48
46
40
53
53
44
41
58
52
57
47
51
46
55
57
48
59
40
48
54
43
55
58
44
47
45
47
52
59
51
44
43
51
45
41
54
45
40
51
50
40
57
58
52
43
44
59
59
50
47
41
45
40
47
58
59